WARNING: for repeatability, setting FPU to use double precision
============================[ Problem Statistics ]=============================
|                                                                             |
|  Number of variables:            50                                         |
|  Number of clauses:             218                                         |
|  Parse time:                   0.00 s                                       |
|                                                                             |
============================[ Search Statistics ]==============================
| Conflicts |          ORIGINAL         |          LEARNT          | Progress |
|           |    Vars  Clauses Literals |    Limit  Clauses Lit/Cl |          |
===============================================================================
===============================================================================
restarts              : 1
conflicts             : 58             (39375 /sec)
decisions             : 67             (0.00 % random) (45485 /sec)
propagations          : 863            (585879 /sec)
conflict literals     : 202            (14.41 % deleted)
Memory used           : 20.00 MB
CPU time              : 0.001473 s

UNSATISFIABLE
